3878,6233,24044,21134,21078,12508,11081,18810,276,16924,23017,10061,14053,19525,12704,12179,24992,949,6056,4438,18157,10789,22708,6757,16405,16549,8968,10863,15547,23686,13913,5370,24505,631,1835,527,17547,4064,22355,12032,22068,9468,2333,35,17843,8852,12505,22895,3878